 # Version information for this restart file 
 # current date 2023-04-05 12:08:40.637
 # current working dir /cluster/home/jbachmann/Molecular-and-Materials-Modelling-FS2023/exercise7/B3LYP/DZVP
 # Program compiled at                             Mon Mar 27 23:22:21 CEST 2023
 # Program compiled on                                               eu-g5-025-4
 # Program compiled for                                  Linux-gnu-x86_64-static
 # Source code revision number                                       git:dc34ec9
 &GLOBAL
   PRINT_LEVEL  LOW
   PROJECT_NAME ethanol
   RUN_TYPE  GEO_OPT
 &END GLOBAL
 &MOTION
   &GEO_OPT
     OPTIMIZER  BFGS
     MAX_ITER  200
     MAX_DR     1.0000000000000000E-02
     MAX_FORCE     1.0000000000000000E-03
     RMS_DR     3.0000000000000001E-03
     RMS_FORCE     2.9999999999999997E-04
     STEP_START_VAL  2
     &BFGS
       USE_MODEL_HESSIAN  T
     &END BFGS
   &END GEO_OPT
   &PRINT
     &TRAJECTORY  ON
       FORMAT  XMOL
       &EACH
         GEO_OPT  1
       &END EACH
     &END TRAJECTORY
   &END PRINT
 &END MOTION
 &FORCE_EVAL
   METHOD  QS
   &DFT
     BASIS_SET_FILE_NAME BASIS_MOLOPT
     POTENTIAL_FILE_NAME GTH_POTENTIALS
     CHARGE  0
     &SCF
       MAX_SCF  50
       EPS_SCF     1.0000000000000000E-04
       SCF_GUESS  RESTART
       &OT  T
         MINIMIZER  DIIS
         N_HISTORY_VEC  7
         PRECONDITIONER  FULL_SINGLE_INVERSE
       &END OT
       &OUTER_SCF  T
         EPS_SCF     1.0000000000000000E-04
         MAX_SCF  500
       &END OUTER_SCF
     &END SCF
     &QS
       METHOD  GAPW
     &END QS
     &MGRID
       CUTOFF     4.0000000000000000E+02
     &END MGRID
     &XC
       DENSITY_CUTOFF     1.0000000000000000E-10
       GRADIENT_CUTOFF     1.0000000000000000E-10
       TAU_CUTOFF     1.0000000000000000E-10
       &XC_FUNCTIONAL  NO_SHORTCUT
         &BECKE88  T
           SCALE_X     7.1999999999999997E-01
         &END BECKE88
         &LYP  T
           SCALE_C     8.1000000000000005E-01
         &END LYP
         &XALPHA  T
           SCALE_X     8.0000000000000002E-02
         &END XALPHA
       &END XC_FUNCTIONAL
       &HF
         FRACTION     2.0000000000000001E-01
         &SCREENING
           EPS_SCHWARZ     1.0000000000000000E-10
         &END SCREENING
         &MEMORY
           MAX_MEMORY  5
         &END MEMORY
       &END HF
     &END XC
     &POISSON
       POISSON_SOLVER  WAVELET
       PERIODIC  NONE
     &END POISSON
     &PRINT
       &MO_CUBES  SILENT
         ADD_LAST  SYMBOLIC
         NLUMO  1
         NHOMO  1
       &END MO_CUBES
     &END PRINT
   &END DFT
   &SUBSYS
     &CELL
       A     1.5000000000000002E+01    0.0000000000000000E+00    0.0000000000000000E+00
       B     0.0000000000000000E+00    1.5000000000000002E+01    0.0000000000000000E+00
       C     0.0000000000000000E+00    0.0000000000000000E+00    1.5000000000000002E+01
       PERIODIC  NONE
       MULTIPLE_UNIT_CELL  1 1 1
     &END CELL
     &COORD
O    6.3065060972247160E+00    6.9177968840544803E+00    7.5000222186625853E+00
C    7.3790180029015771E+00    7.8795483008547675E+00    7.4999532711707069E+00
C    8.6916785965533077E+00    7.1115952283193380E+00    7.5000400074142171E+00
H    5.4607169650868777E+00    7.3899816119247008E+00    7.5000143522068390E+00
H    7.3101595819272136E+00    8.5241653953138972E+00    8.3895561820821811E+00
H    7.3101739963346715E+00    8.5242360055832069E+00    6.6104159277009478E+00
H    9.5379568744941938E+00    7.8085257287338710E+00    7.4999949799255354E+00
H    8.7607328807914566E+00    6.4748481640633413E+00    8.3890915721040997E+00
H    8.7606771461834771E+00    6.4749316047621166E+00    6.6109105522509255E+00
     &END COORD
     &KIND H
       BASIS_SET DZVP-MOLOPT-GTH
       POTENTIAL GTH-PBE-q1
       &POTENTIAL
 1
  0.2000000000000000E+00 2 -0.4178900440000000E+01  0.7244633100000000E+00
 0
         # Potential name:  GTH-PBE-Q1  for symbol:  H
         # Potential read from the potential filename: GTH_POTENTIALS
       &END POTENTIAL
     &END KIND
     &KIND C
       BASIS_SET DZVP-MOLOPT-GTH
       POTENTIAL GTH-PBE-q4
       &POTENTIAL
 2 2
  0.3384712400000000E+00 2 -0.8803673979999999E+01  0.1339210850000000E+01
 2
  0.3025757500000000E+00 1  0.9622486650000001E+01
  0.2915069400000000E+00 0
         # Potential name:  GTH-PBE-Q4  for symbol:  C
         # Potential read from the potential filename: GTH_POTENTIALS
       &END POTENTIAL
     &END KIND
     &KIND O
       BASIS_SET DZVP-MOLOPT-GTH
       POTENTIAL GTH-PBE-q6
       &POTENTIAL
 2 4
  0.2445543000000000E+00 2 -0.1666721480000000E+02  0.2487311320000000E+01
 2
  0.2209559200000000E+00 1  0.1833745811000000E+02
  0.2113324700000000E+00 0
         # Potential name:  GTH-PBE-Q6  for symbol:  O
         # Potential read from the potential filename: GTH_POTENTIALS
       &END POTENTIAL
     &END KIND
     &TOPOLOGY
       COORD_FILE_NAME ../../ethanol.xyz
       COORD_FILE_FORMAT  XYZ
       NUMBER_OF_ATOMS  9
       MULTIPLE_UNIT_CELL  1 1 1
       &CENTER_COORDINATES  T
       &END CENTER_COORDINATES
     &END TOPOLOGY
   &END SUBSYS
   &PRINT
     &PROGRAM_RUN_INFO  SILENT
       &EACH
         GEO_OPT  1
       &END EACH
     &END PROGRAM_RUN_INFO
     &FORCES  OFF
     &END FORCES
     &GRID_INFORMATION  SILENT
     &END GRID_INFORMATION
   &END PRINT
 &END FORCE_EVAL
