&CONTROL
  calculation='bands',
  outdir='./out',
  prefix='sic',
  pseudo_dir='./pseudo',
  verbosity='high',
  tstress=.false.,
  tprnfor=.false.,
/

&SYSTEM
  ibrav=2
  a=4.415
  nat=2
  ntyp=2
  nbnd=10
  ecutwfc=45
  ecutrho=360
  occupations='smearing'
  degauss=0.001
/
&ELECTRONS
  conv_thr =   1.0000000000d-08
  electron_maxstep = 50
  mixing_beta =   2.5000000000d-01
  scf_must_converge = .false.
/
ATOMIC_SPECIES
  Si 28.0855 Si.pbe-n-rrkjus_psl.1.0.0.UPF
  C  12 C.pbe-n-kjpaw_psl.1.0.0.UPF

ATOMIC_POSITIONS {alat}
  Si   0.0000000000d0   0.0000000000d0   0.0000000000d0
  C    0.2500000000d0   0.2500000000d0   0.2500000000d0

K_POINTS {crystal_b}
4
  0.50  0.50  0.50 120  !L
  0.00  0.00  0.00  60  !G
  0.50  0.00  0.50  40  !X
  0.625 0.25  0.625 40  !U
