 &control
    verbosity='high'
    calculation='scf'
    restart_mode='from_scratch'
    prefix='SI'
    pseudo_dir = './',
    outdir='./'
 /
 &system
    ibrav=1
    celldm(1)=30.78365083894424738792
    nat=216,
    ntyp=1,
    ecutwfc = 30,
    occupations='smearing',
    degauss=0.001
 /
 &electrons
    conv_thr = 1.0e-8
    mixing_beta = 0.5
 /
 &ions
 /
ATOMIC_SPECIES
  Si  28.086  Si.pbe-mt_fhi.UPF
ATOMIC_POSITIONS  crystal
Si     0.000000    0.000000    0.000000
Si     0.000000    0.166667    0.166667
Si     0.166667    0.000000    0.166667
Si     0.166667    0.166667    0.000000
Si     0.250000    0.083333    0.250000
Si     0.083333    0.083333    0.083333
Si     0.083333    0.250000    0.250000
Si     0.250000    0.250000    0.083333
Si     0.333333    0.000000    0.000000
Si     0.333333    0.166667    0.166667
Si     0.500000    0.000000    0.166667
Si     0.500000    0.166667    0.000000
Si     0.583333    0.083333    0.250000
Si     0.416667    0.083333    0.083333
Si     0.416667    0.250000    0.250000
Si     0.583333    0.250000    0.083333
Si     0.666667    0.000000    0.000000
Si     0.666667    0.166667    0.166667
Si     0.833333    0.000000    0.166667
Si     0.833333    0.166667    0.000000
Si     0.916667    0.083333    0.250000
Si     0.750000    0.083333    0.083333
Si     0.750000    0.250000    0.250000
Si     0.916667    0.250000    0.083333
Si     0.000000    0.333333    0.000000
Si     0.000000    0.500000    0.166667
Si     0.166667    0.333333    0.166667
Si     0.166667    0.500000    0.000000
Si     0.250000    0.416667    0.250000
Si     0.083333    0.416667    0.083333
Si     0.083333    0.583333    0.250000
Si     0.250000    0.583333    0.083333
Si     0.333333    0.333333    0.000000
Si     0.333333    0.500000    0.166667
Si     0.500000    0.333333    0.166667
Si     0.500000    0.500000    0.000000
Si     0.583333    0.416667    0.250000
Si     0.416667    0.416667    0.083333
Si     0.416667    0.583333    0.250000
Si     0.583333    0.583333    0.083333
Si     0.666667    0.333333    0.000000
Si     0.666667    0.500000    0.166667
Si     0.833333    0.333333    0.166667
Si     0.833333    0.500000    0.000000
Si     0.916667    0.416667    0.250000
Si     0.750000    0.416667    0.083333
Si     0.750000    0.583333    0.250000
Si     0.916667    0.583333    0.083333
Si     0.000000    0.666667    0.000000
Si     0.000000    0.833333    0.166667
Si     0.166667    0.666667    0.166667
Si     0.166667    0.833333    0.000000
Si     0.250000    0.750000    0.250000
Si     0.083333    0.750000    0.083333
Si     0.083333    0.916667    0.250000
Si     0.250000    0.916667    0.083333
Si     0.333333    0.666667    0.000000
Si     0.333333    0.833333    0.166667
Si     0.500000    0.666667    0.166667
Si     0.500000    0.833333    0.000000
Si     0.583333    0.750000    0.250000
Si     0.416667    0.750000    0.083333
Si     0.416667    0.916667    0.250000
Si     0.583333    0.916667    0.083333
Si     0.666667    0.666667    0.000000
Si     0.666667    0.833333    0.166667
Si     0.833333    0.666667    0.166667
Si     0.833333    0.833333    0.000000
Si     0.916667    0.750000    0.250000
Si     0.750000    0.750000    0.083333
Si     0.750000    0.916667    0.250000
Si     0.916667    0.916667    0.083333
Si     0.000000    0.000000    0.333333
Si     0.000000    0.166667    0.500000
Si     0.166667    0.000000    0.500000
Si     0.166667    0.166667    0.333333
Si     0.250000    0.083333    0.583333
Si     0.083333    0.083333    0.416667
Si     0.083333    0.250000    0.583333
Si     0.250000    0.250000    0.416667
Si     0.333333    0.000000    0.333333
Si     0.333333    0.166667    0.500000
Si     0.500000    0.000000    0.500000
Si     0.500000    0.166667    0.333333
Si     0.583333    0.083333    0.583333
Si     0.416667    0.083333    0.416667
Si     0.416667    0.250000    0.583333
Si     0.583333    0.250000    0.416667
Si     0.666667    0.000000    0.333333
Si     0.666667    0.166667    0.500000
Si     0.833333    0.000000    0.500000
Si     0.833333    0.166667    0.333333
Si     0.916667    0.083333    0.583333
Si     0.750000    0.083333    0.416667
Si     0.750000    0.250000    0.583333
Si     0.916667    0.250000    0.416667
Si     0.000000    0.333333    0.333333
Si     0.000000    0.500000    0.500000
Si     0.166667    0.333333    0.500000
Si     0.166667    0.500000    0.333333
Si     0.250000    0.416667    0.583333
Si     0.083333    0.416667    0.416667
Si     0.083333    0.583333    0.583333
Si     0.250000    0.583333    0.416667
Si     0.333333    0.333333    0.333333
Si     0.333333    0.500000    0.500000
Si     0.500000    0.333333    0.500000
Si     0.500000    0.500000    0.333333
Si     0.583333    0.416667    0.583333
Si     0.416667    0.416667    0.416667
Si     0.416667    0.583333    0.583333
Si     0.583333    0.583333    0.416667
Si     0.666667    0.333333    0.333333
Si     0.666667    0.500000    0.500000
Si     0.833333    0.333333    0.500000
Si     0.833333    0.500000    0.333333
Si     0.916667    0.416667    0.583333
Si     0.750000    0.416667    0.416667
Si     0.750000    0.583333    0.583333
Si     0.916667    0.583333    0.416667
Si     0.000000    0.666667    0.333333
Si     0.000000    0.833333    0.500000
Si     0.166667    0.666667    0.500000
Si     0.166667    0.833333    0.333333
Si     0.250000    0.750000    0.583333
Si     0.083333    0.750000    0.416667
Si     0.083333    0.916667    0.583333
Si     0.250000    0.916667    0.416667
Si     0.333333    0.666667    0.333333
Si     0.333333    0.833333    0.500000
Si     0.500000    0.666667    0.500000
Si     0.500000    0.833333    0.333333
Si     0.583333    0.750000    0.583333
Si     0.416667    0.750000    0.416667
Si     0.416667    0.916667    0.583333
Si     0.583333    0.916667    0.416667
Si     0.666667    0.666667    0.333333
Si     0.666667    0.833333    0.500000
Si     0.833333    0.666667    0.500000
Si     0.833333    0.833333    0.333333
Si     0.916667    0.750000    0.583333
Si     0.750000    0.750000    0.416667
Si     0.750000    0.916667    0.583333
Si     0.916667    0.916667    0.416667
Si     0.000000    0.000000    0.666667
Si     0.000000    0.166667    0.833333
Si     0.166667    0.000000    0.833333
Si     0.166667    0.166667    0.666667
Si     0.250000    0.083333    0.916667
Si     0.083333    0.083333    0.750000
Si     0.083333    0.250000    0.916667
Si     0.250000    0.250000    0.750000
Si     0.333333    0.000000    0.666667
Si     0.333333    0.166667    0.833333
Si     0.500000    0.000000    0.833333
Si     0.500000    0.166667    0.666667
Si     0.583333    0.083333    0.916667
Si     0.416667    0.083333    0.750000
Si     0.416667    0.250000    0.916667
Si     0.583333    0.250000    0.750000
Si     0.666667    0.000000    0.666667
Si     0.666667    0.166667    0.833333
Si     0.833333    0.000000    0.833333
Si     0.833333    0.166667    0.666667
Si     0.916667    0.083333    0.916667
Si     0.750000    0.083333    0.750000
Si     0.750000    0.250000    0.916667
Si     0.916667    0.250000    0.750000
Si     0.000000    0.333333    0.666667
Si     0.000000    0.500000    0.833333
Si     0.166667    0.333333    0.833333
Si     0.166667    0.500000    0.666667
Si     0.250000    0.416667    0.916667
Si     0.083333    0.416667    0.750000
Si     0.083333    0.583333    0.916667
Si     0.250000    0.583333    0.750000
Si     0.333333    0.333333    0.666667
Si     0.333333    0.500000    0.833333
Si     0.500000    0.333333    0.833333
Si     0.500000    0.500000    0.666667
Si     0.583333    0.416667    0.916667
Si     0.416667    0.416667    0.750000
Si     0.416667    0.583333    0.916667
Si     0.583333    0.583333    0.750000
Si     0.666667    0.333333    0.666667
Si     0.666667    0.500000    0.833333
Si     0.833333    0.333333    0.833333
Si     0.833333    0.500000    0.666667
Si     0.916667    0.416667    0.916667
Si     0.750000    0.416667    0.750000
Si     0.750000    0.583333    0.916667
Si     0.916667    0.583333    0.750000
Si     0.000000    0.666667    0.666667
Si     0.000000    0.833333    0.833333
Si     0.166667    0.666667    0.833333
Si     0.166667    0.833333    0.666667
Si     0.250000    0.750000    0.916667
Si     0.083333    0.750000    0.750000
Si     0.083333    0.916667    0.916667
Si     0.250000    0.916667    0.750000
Si     0.333333    0.666667    0.666667
Si     0.333333    0.833333    0.833333
Si     0.500000    0.666667    0.833333
Si     0.500000    0.833333    0.666667
Si     0.583333    0.750000    0.916667
Si     0.416667    0.750000    0.750000
Si     0.416667    0.916667    0.916667
Si     0.583333    0.916667    0.750000
Si     0.666667    0.666667    0.666667
Si     0.666667    0.833333    0.833333
Si     0.833333    0.666667    0.833333
Si     0.833333    0.833333    0.666667
Si     0.916667    0.750000    0.916667
Si     0.750000    0.750000    0.750000
Si     0.750000    0.916667    0.916667
Si     0.916667    0.916667    0.750000
K_POINTS automatic
1 1 1 0 0 0
