 # Version information for this restart file 
 # current date 2023-03-08 09:41:54.772
 # current working dir /cluster/home/jbachmann/Molecular-and-Materials-Modelling-FS2023/exercise-3_files/BFGS-icosahedron
 # Program compiled at                             Tue Aug  3 16:40:32 CEST 2021
 # Program compiled on                                               eu-g1-012-3
 # Program compiled for                         Linux-x86-64-gfortran-opt-nolint
 # Source code revision number                                       git:310b7ab
 &GLOBAL
   PRINT_LEVEL  LOW
   PROJECT_NAME optimization
   RUN_TYPE  GEO_OPT
 &END GLOBAL
 &MOTION
   &GEO_OPT
     OPTIMIZER  BFGS
     MAX_ITER  500
     MAX_DR     1.0000000000000000E-03
     MAX_FORCE     1.0000000000000000E-04
     RMS_DR     2.9999999999999997E-04
     RMS_FORCE     3.0000000000000001E-05
     STEP_START_VAL  58
     &BFGS
       USE_MODEL_HESSIAN  T
     &END BFGS
   &END GEO_OPT
   &PRINT
     &TRAJECTORY  ON
       FORMAT  XMOL
       &EACH
         GEO_OPT  1
       &END EACH
     &END TRAJECTORY
   &END PRINT
 &END MOTION
 &FORCE_EVAL
   METHOD  FIST
   STRESS_TENSOR  ANALYTICAL
   &MM
     &FORCEFIELD
       &NONBONDED
         &LENNARD-JONES
           ATOMS Ar Ar
           EPSILON     1.1980000000000000E+02
           SIGMA     3.4049999999999998E+00
           RCUT     8.4000000000000004E+00
         &END LENNARD-JONES
       &END NONBONDED
       &CHARGE
         ATOM Ar
         CHARGE     0.0000000000000000E+00
       &END CHARGE
       &CHARGE
         ATOM Kr
         CHARGE     0.0000000000000000E+00
       &END CHARGE
     &END FORCEFIELD
     &POISSON
       PERIODIC  NONE
       &EWALD
         EWALD_TYPE  NONE
       &END EWALD
     &END POISSON
     &PRINT
       &FF_INFO  OFF
         SPLINE_INFO  T
         SPLINE_DATA  T
       &END FF_INFO
     &END PRINT
   &END MM
   &SUBSYS
     &CELL
       A     2.0000000000000004E+01    0.0000000000000000E+00    0.0000000000000000E+00
       B     0.0000000000000000E+00    2.0000000000000004E+01    0.0000000000000000E+00
       C     0.0000000000000000E+00    0.0000000000000000E+00    2.0000000000000004E+01
       PERIODIC  NONE
       MULTIPLE_UNIT_CELL  1 1 1
     &END CELL
     &COORD
Ar    1.5157046777765986E+01    7.8235743634737345E+00    1.3358776280744671E+01
Ar    3.6457046909164017E+00    1.1760322026873867E+01    1.1300737243399329E+01
Ar    5.8592028633413511E+00    7.6821391933981875E+00    5.2534320028000572E+00
Ar    1.2969896395654301E+01    5.2493885438960559E+00    6.5252544799851373E+00
Ar    9.3930738925359645E+00    1.1843867908256453E+01    1.6312487429984174E+01
Ar    8.0015115587107850E+00    5.6419287248461396E+00    1.2216195005678228E+01
Ar    4.6829027949710191E+00    1.3553106283880066E+01    8.1089573857682442E+00
Ar    1.2380796974358693E+01    8.1730629800939418E+00    4.1633139519467139E+00
Ar    8.7245285277686087E+00    1.4917718973353335E+01    1.4174963103012717E+01
Ar    1.5312575480896829E+01    1.1623798354140801E+01    1.3322801366656385E+01
Ar    8.7687922330841470E+00    9.4088547914576246E+00    3.5165050506511979E+00
Ar    5.8089770567048644E+00    1.1480199460090859E+01    5.0331605134915653E+00
Ar    5.8030589605878911E+00    1.4876464929289227E+01    1.1627655147840251E+01
Ar    1.2384085131037518E+01    1.3664214059788689E+01    1.4829387968750584E+01
Ar    1.5336346337240606E+01    8.2215211562779373E+00    6.7379049245410236E+00
Ar    1.6449092424223494E+01    9.5272959471510283E+00    1.0211555420257644E+01
Ar    1.3065576733722391E+01    1.3699156973372835E+01    1.1130446648709354E+01
Ar    1.1236371393754165E+01    1.1536751438764124E+01    5.3968470707857552E+00
Ar    9.3839722188484398E+00    1.4955631860320816E+01    1.0472594933426395E+01
Ar    8.2535182577412876E+00    1.3625158608999445E+01    6.9253302030216197E+00
Ar    1.4213912068547167E+01    1.1585097189170691E+01    7.9940834289114395E+00
Ar    6.5129443299252827E+00    1.1826071475465874E+01    1.3812941876753676E+01
Ar    9.4176455308316527E+00    6.4693144552025075E+00    5.8670976623542188E+00
Ar    4.7408627155481478E+00    9.7384594417303632E+00    8.2600596880894326E+00
Ar    1.2291924058351663E+01    9.8492203054178482E+00    1.4844854178585893E+01
Ar    1.4085395030329824E+01    6.5417650665039435E+00    9.9325826844906846E+00
Ar    5.8278057687425084E+00    8.7085823169753205E+00    1.1756314496649857E+01
Ar    6.9336617419804147E+00    6.6729961018234505E+00    8.7326355194356378E+00
Ar    1.0488590399068991E+01    5.4546454736395020E+00    9.3684439924227831E+00
Ar    1.1580940308021074E+01    6.7408556910500179E+00    1.2783477456461361E+01
Ar    8.6987965176799715E+00    8.7502598209664804E+00    1.4259446836730815E+01
Ar    1.0720658671051922E+01    1.1901987382239627E+01    8.9908260282567181E+00
Ar    1.2872445257499319E+01    9.8691775176929912E+00    1.1144712383058851E+01
Ar    8.3236074622992149E+00    9.8006336894954060E+00    7.1816439666581866E+00
Ar    1.1802225056930176E+01    8.6089614681980784E+00    7.8037529614948804E+00
Ar    7.2432354267625234E+00    1.1796626123043234E+01    1.0140905786708714E+01
Ar    1.0054502387553223E+01    1.1835518168176051E+01    1.2591476557865828E+01
Ar    9.3663865650125029E+00    8.7886337354836890E+00    1.0593862363619392E+01
     &END COORD
     &TOPOLOGY
       COORD_FILE_NAME icosahedron.xyz
       COORD_FILE_FORMAT  XYZ
       NUMBER_OF_ATOMS  38
       MULTIPLE_UNIT_CELL  1 1 1
       &CENTER_COORDINATES  T
       &END CENTER_COORDINATES
     &END TOPOLOGY
   &END SUBSYS
   &PRINT
     &FORCES  OFF
     &END FORCES
     &GRID_INFORMATION  SILENT
     &END GRID_INFORMATION
   &END PRINT
 &END FORCE_EVAL
