 # Version information for this restart file 
 # current date 2023-03-08 09:41:54.786
 # current working dir /cluster/home/jbachmann/Molecular-and-Materials-Modelling-FS2023/exercise-3_files/BFGS-icosahedron
 # Program compiled at                             Tue Aug  3 16:40:32 CEST 2021
 # Program compiled on                                               eu-g1-012-3
 # Program compiled for                         Linux-x86-64-gfortran-opt-nolint
 # Source code revision number                                       git:310b7ab
 &GLOBAL
   PRINT_LEVEL  LOW
   PROJECT_NAME optimization
   RUN_TYPE  GEO_OPT
 &END GLOBAL
 &MOTION
   &GEO_OPT
     OPTIMIZER  BFGS
     MAX_ITER  500
     MAX_DR     1.0000000000000000E-03
     MAX_FORCE     1.0000000000000000E-04
     RMS_DR     2.9999999999999997E-04
     RMS_FORCE     3.0000000000000001E-05
     STEP_START_VAL  59
     &BFGS
       USE_MODEL_HESSIAN  T
     &END BFGS
   &END GEO_OPT
   &PRINT
     &TRAJECTORY  ON
       FORMAT  XMOL
       &EACH
         GEO_OPT  1
       &END EACH
     &END TRAJECTORY
   &END PRINT
 &END MOTION
 &FORCE_EVAL
   METHOD  FIST
   STRESS_TENSOR  ANALYTICAL
   &MM
     &FORCEFIELD
       &NONBONDED
         &LENNARD-JONES
           ATOMS Ar Ar
           EPSILON     1.1980000000000000E+02
           SIGMA     3.4049999999999998E+00
           RCUT     8.4000000000000004E+00
         &END LENNARD-JONES
       &END NONBONDED
       &CHARGE
         ATOM Ar
         CHARGE     0.0000000000000000E+00
       &END CHARGE
       &CHARGE
         ATOM Kr
         CHARGE     0.0000000000000000E+00
       &END CHARGE
     &END FORCEFIELD
     &POISSON
       PERIODIC  NONE
       &EWALD
         EWALD_TYPE  NONE
       &END EWALD
     &END POISSON
     &PRINT
       &FF_INFO  OFF
         SPLINE_INFO  T
         SPLINE_DATA  T
       &END FF_INFO
     &END PRINT
   &END MM
   &SUBSYS
     &CELL
       A     2.0000000000000004E+01    0.0000000000000000E+00    0.0000000000000000E+00
       B     0.0000000000000000E+00    2.0000000000000004E+01    0.0000000000000000E+00
       C     0.0000000000000000E+00    0.0000000000000000E+00    2.0000000000000004E+01
       PERIODIC  NONE
       MULTIPLE_UNIT_CELL  1 1 1
     &END CELL
     &COORD
Ar    1.5156944020741058E+01    7.8235922151708799E+00    1.3358695011174245E+01
Ar    3.6457659719141353E+00    1.1760345698053140E+01    1.1300770619387158E+01
Ar    5.8592353623320514E+00    7.6821470244178460E+00    5.2534480772764454E+00
Ar    1.2969878699886820E+01    5.2493852171973865E+00    6.5252235122319089E+00
Ar    9.3930650005691891E+00    1.1843913961797965E+01    1.6312502154860642E+01
Ar    8.0014927244681466E+00    5.6418117242487575E+00    1.2216208828972931E+01
Ar    4.6829421818335915E+00    1.3553192521088517E+01    8.1089230370921062E+00
Ar    1.2380899250190334E+01    8.1731241776295036E+00    4.1632215853927299E+00
Ar    8.7245571882150106E+00    1.4917832332725489E+01    1.4174901381729986E+01
Ar    1.5312518892676040E+01    1.1623878762639576E+01    1.3322790044072809E+01
Ar    8.7688558498675224E+00    9.4089344296306798E+00    3.5165331642184601E+00
Ar    5.8089789974862409E+00    1.1480283435450566E+01    5.0332024051686970E+00
Ar    5.8031961508603729E+00    1.4876470715861398E+01    1.1627602881393658E+01
Ar    1.2384054740497270E+01    1.3664310490160462E+01    1.4829261650346234E+01
Ar    1.5336402163817700E+01    8.2216025804081472E+00    6.7378714103950106E+00
Ar    1.6449057461846337E+01    9.5273696928073601E+00    1.0211516196627079E+01
Ar    1.3065675848859716E+01    1.3699277030860054E+01    1.1130387887636857E+01
Ar    1.1236354943672712E+01    1.1536860021132606E+01    5.3971057939826936E+00
Ar    9.3839349209557188E+00    1.4955762784479761E+01    1.0472547120689546E+01
Ar    8.2537013462573263E+00    1.3625167366323078E+01    6.9253792546634880E+00
Ar    1.4213812395503648E+01    1.1585166417459282E+01    7.9940050717934161E+00
Ar    6.5128814204949919E+00    1.1826097384851524E+01    1.3813028754281630E+01
Ar    9.4176380701360003E+00    6.4691584493635954E+00    5.8669855592086275E+00
Ar    4.7407812038566535E+00    9.7384207244631096E+00    8.2601407735989607E+00
Ar    1.2291870073646827E+01    9.8491933196840957E+00    1.4844912112488890E+01
Ar    1.4085453592276409E+01    6.5416533468371103E+00    9.9326030450905201E+00
Ar    5.8276914034565834E+00    8.7084921974522196E+00    1.1756379294580244E+01
Ar    6.9335821129617772E+00    6.6728183231735354E+00    8.7326279676258132E+00
Ar    1.0488573750312144E+01    5.4544679182326679E+00    9.3684482080759732E+00
Ar    1.1580943583283910E+01    6.7408193693736180E+00    1.2783463604710210E+01
Ar    8.6987639777611854E+00    8.7502443671617520E+00    1.4259531613850948E+01
Ar    1.0720551130678839E+01    1.1901575942124207E+01    8.9903254433632522E+00
Ar    1.2872417216505417E+01    9.8689486172850707E+00    1.1144800843330506E+01
Ar    8.3238413596497818E+00    9.8007527253278059E+00    7.1817089329187214E+00
Ar    1.1802158396279406E+01    8.6091980963036256E+00    7.8038387734949186E+00
Ar    7.2431932367710692E+00    1.1796589941968451E+01    1.0141019499122851E+01
Ar    1.0054425099780181E+01    1.1835475040506500E+01    1.2591607718918704E+01
Ar    9.3664802596982089E+00    8.7886276363488900E+00    1.0593904766232539E+01
     &END COORD
     &TOPOLOGY
       COORD_FILE_NAME icosahedron.xyz
       COORD_FILE_FORMAT  XYZ
       NUMBER_OF_ATOMS  38
       MULTIPLE_UNIT_CELL  1 1 1
       &CENTER_COORDINATES  T
       &END CENTER_COORDINATES
     &END TOPOLOGY
   &END SUBSYS
   &PRINT
     &FORCES  OFF
     &END FORCES
     &GRID_INFORMATION  SILENT
     &END GRID_INFORMATION
   &END PRINT
 &END FORCE_EVAL
