 # Version information for this restart file 
 # current date 2023-03-08 09:41:54.764
 # current working dir /cluster/home/jbachmann/Molecular-and-Materials-Modelling-FS2023/exercise-3_files/BFGS-icosahedron
 # Program compiled at                             Tue Aug  3 16:40:32 CEST 2021
 # Program compiled on                                               eu-g1-012-3
 # Program compiled for                         Linux-x86-64-gfortran-opt-nolint
 # Source code revision number                                       git:310b7ab
 &GLOBAL
   PRINT_LEVEL  LOW
   PROJECT_NAME optimization
   RUN_TYPE  GEO_OPT
 &END GLOBAL
 &MOTION
   &GEO_OPT
     OPTIMIZER  BFGS
     MAX_ITER  500
     MAX_DR     1.0000000000000000E-03
     MAX_FORCE     1.0000000000000000E-04
     RMS_DR     2.9999999999999997E-04
     RMS_FORCE     3.0000000000000001E-05
     STEP_START_VAL  57
     &BFGS
       USE_MODEL_HESSIAN  T
     &END BFGS
   &END GEO_OPT
   &PRINT
     &TRAJECTORY  ON
       FORMAT  XMOL
       &EACH
         GEO_OPT  1
       &END EACH
     &END TRAJECTORY
   &END PRINT
 &END MOTION
 &FORCE_EVAL
   METHOD  FIST
   STRESS_TENSOR  ANALYTICAL
   &MM
     &FORCEFIELD
       &NONBONDED
         &LENNARD-JONES
           ATOMS Ar Ar
           EPSILON     1.1980000000000000E+02
           SIGMA     3.4049999999999998E+00
           RCUT     8.4000000000000004E+00
         &END LENNARD-JONES
       &END NONBONDED
       &CHARGE
         ATOM Ar
         CHARGE     0.0000000000000000E+00
       &END CHARGE
       &CHARGE
         ATOM Kr
         CHARGE     0.0000000000000000E+00
       &END CHARGE
     &END FORCEFIELD
     &POISSON
       PERIODIC  NONE
       &EWALD
         EWALD_TYPE  NONE
       &END EWALD
     &END POISSON
     &PRINT
       &FF_INFO  OFF
         SPLINE_INFO  T
         SPLINE_DATA  T
       &END FF_INFO
     &END PRINT
   &END MM
   &SUBSYS
     &CELL
       A     2.0000000000000004E+01    0.0000000000000000E+00    0.0000000000000000E+00
       B     0.0000000000000000E+00    2.0000000000000004E+01    0.0000000000000000E+00
       C     0.0000000000000000E+00    0.0000000000000000E+00    2.0000000000000004E+01
       PERIODIC  NONE
       MULTIPLE_UNIT_CELL  1 1 1
     &END CELL
     &COORD
Ar    1.5157165329223755E+01    7.8235295607396607E+00    1.3358930821182877E+01
Ar    3.6456121165879787E+00    1.1760092976211258E+01    1.1300558735848927E+01
Ar    5.8590097949438293E+00    7.6820594604379639E+00    5.2533894193622679E+00
Ar    1.2969887946324430E+01    5.2493815570858384E+00    6.5254275496109022E+00
Ar    9.3930122527645850E+00    1.1843583307947812E+01    1.6312505558195319E+01
Ar    8.0013891842098204E+00    5.6419472468892096E+00    1.2216337864872054E+01
Ar    4.6826543950378046E+00    1.3552969823783565E+01    8.1090004907789890E+00
Ar    1.2380508621376318E+01    8.1728036994811522E+00    4.1635174111710196E+00
Ar    8.7244740305464923E+00    1.4917342434971470E+01    1.4175166665330282E+01
Ar    1.5312821231186179E+01    1.1623586448697683E+01    1.3322746969522438E+01
Ar    8.7685053868231986E+00    9.4086164710328042E+00    3.5164295093441766E+00
Ar    5.8089393476569544E+00    1.1480015900487121E+01    5.0328872983079265E+00
Ar    5.8027214629702559E+00    1.4876415535794504E+01    1.1627709893902697E+01
Ar    1.2384179511070224E+01    1.3663946924600888E+01    1.4829738247537053E+01
Ar    1.5336246958268081E+01    8.2212638793496442E+00    6.7379553861933399E+00
Ar    1.6449226964836615E+01    9.5270727978937124E+00    1.0211728742542142E+01
Ar    1.3065464591731866E+01    1.3698828930568574E+01    1.1130682718675994E+01
Ar    1.1236413803170706E+01    1.1536519632984048E+01    5.3963104452210029E+00
Ar    9.3838704834377928E+00    1.4955474238161820E+01    1.0472729329310056E+01
Ar    8.2530598676331923E+00    1.3624974886731522E+01    6.9253379319170127E+00
Ar    1.4214174536000998E+01    1.1584911497228161E+01    7.9942573492462277E+00
Ar    6.5131899804951097E+00    1.1826124424694145E+01    1.3812752183587923E+01
Ar    9.4177072010189864E+00    6.4697063451246812E+00    5.8672775584930106E+00
Ar    4.7410404789379115E+00    9.7386767621419263E+00    8.2600273817579080E+00
Ar    1.2292113279815673E+01    9.8492921599981251E+00    1.4844711339218254E+01
Ar    1.4085314399312425E+01    6.5421057355728101E+00    9.9326020585694721E+00
Ar    5.8281034395770348E+00    8.7089699696692051E+00    1.1755881092151677E+01
Ar    6.9338018188089503E+00    6.6733514993943661E+00    8.7327380101291379E+00
Ar    1.0488595892650377E+01    5.4550498717472768E+00    9.3684475565557950E+00
Ar    1.1580933458178206E+01    6.7410914519727800E+00    1.2783445410193016E+01
Ar    8.6990821122730804E+00    8.7503400160930038E+00    1.4259186560711791E+01
Ar    1.0720736221628911E+01    1.1903062845110968E+01    8.9913989605216145E+00
Ar    1.2872755866852449E+01    9.8696257445189968E+00    1.1144779272517528E+01
Ar    8.3232677966814421E+00    9.8005624328250462E+00    7.1813570623992691E+00
Ar    1.1802499837690524E+01    8.6086525975823314E+00    7.8034519421167357E+00
Ar    7.2432801959627318E+00    1.1796675705012852E+01    1.0140556738394560E+01
Ar    1.0054583015436865E+01    1.1835622029906865E+01    1.2591488453188752E+01
Ar    9.3662271888785487E+00    8.7887151975564670E+00    1.0593974081420249E+01
     &END COORD
     &TOPOLOGY
       COORD_FILE_NAME icosahedron.xyz
       COORD_FILE_FORMAT  XYZ
       NUMBER_OF_ATOMS  38
       MULTIPLE_UNIT_CELL  1 1 1
       &CENTER_COORDINATES  T
       &END CENTER_COORDINATES
     &END TOPOLOGY
   &END SUBSYS
   &PRINT
     &FORCES  OFF
     &END FORCES
     &GRID_INFORMATION  SILENT
     &END GRID_INFORMATION
   &END PRINT
 &END FORCE_EVAL
