 # Version information for this restart file 
 # current date 2023-03-08 08:50:17.396
 # current working dir /cluster/home/jbachmann/Molecular-and-Materials-Modelling-FS2023/exercise-3_files/BFGS-octahedron
 # Program compiled at                             Tue Aug  3 16:40:32 CEST 2021
 # Program compiled on                                               eu-g1-012-3
 # Program compiled for                         Linux-x86-64-gfortran-opt-nolint
 # Source code revision number                                       git:310b7ab
 &GLOBAL
   PRINT_LEVEL  LOW
   PROJECT_NAME optimization
   RUN_TYPE  GEO_OPT
 &END GLOBAL
 &MOTION
   &GEO_OPT
     OPTIMIZER  BFGS
     MAX_ITER  500
     MAX_DR     1.0000000000000000E-03
     MAX_FORCE     1.0000000000000000E-04
     RMS_DR     2.9999999999999997E-04
     RMS_FORCE     3.0000000000000001E-05
     STEP_START_VAL  184
     &BFGS
       USE_MODEL_HESSIAN  T
     &END BFGS
   &END GEO_OPT
   &PRINT
     &TRAJECTORY  ON
       FORMAT  XMOL
       &EACH
         GEO_OPT  1
       &END EACH
     &END TRAJECTORY
   &END PRINT
 &END MOTION
 &FORCE_EVAL
   METHOD  FIST
   STRESS_TENSOR  ANALYTICAL
   &MM
     &FORCEFIELD
       &NONBONDED
         &LENNARD-JONES
           ATOMS Ar Ar
           EPSILON     1.1980000000000000E+02
           SIGMA     3.4049999999999998E+00
           RCUT     8.4000000000000004E+00
         &END LENNARD-JONES
       &END NONBONDED
       &CHARGE
         ATOM Ar
         CHARGE     0.0000000000000000E+00
       &END CHARGE
       &CHARGE
         ATOM Kr
         CHARGE     0.0000000000000000E+00
       &END CHARGE
     &END FORCEFIELD
     &POISSON
       PERIODIC  NONE
       &EWALD
         EWALD_TYPE  NONE
       &END EWALD
     &END POISSON
     &PRINT
       &FF_INFO  OFF
         SPLINE_INFO  T
         SPLINE_DATA  T
       &END FF_INFO
     &END PRINT
   &END MM
   &SUBSYS
     &CELL
       A     2.0000000000000004E+01    0.0000000000000000E+00    0.0000000000000000E+00
       B     0.0000000000000000E+00    2.0000000000000004E+01    0.0000000000000000E+00
       C     0.0000000000000000E+00    0.0000000000000000E+00    2.0000000000000004E+01
       PERIODIC  NONE
       MULTIPLE_UNIT_CELL  1 1 1
     &END CELL
     &COORD
Ar    1.5218907839958517E+01    7.0597214390818745E+00    1.2894328622221968E+01
Ar    5.5362719837981107E+00    1.1525227748349526E+01    1.2303065924311674E+01
Ar    7.4670916003339212E+00    8.5723080904308837E+00    6.8198119189163258E+00
Ar    1.2287832840722576E+01    6.3563434343547804E+00    7.1047032090610767E+00
Ar    1.1168085375019748E+01    1.1405165128481226E+01    1.5609154277219750E+01
Ar    8.2082077985387816E+00    4.4669813497603919E+00    1.1804587289231010E+01
Ar    6.1320354875921339E+00    1.2096389604779182E+01    7.0372915243041749E+00
Ar    1.3647044843696369E+01    9.0579791620201107E+00    4.8366248552035040E+00
Ar    9.0515555966493277E+00    1.2800480311440470E+01    1.2822037307928371E+01
Ar    1.5266578197394807E+01    1.3279381430773071E+01    1.0886495322860721E+01
Ar    1.0158192425998807E+01    7.7330737510777077E+00    4.3249871265032649E+00
Ar    8.8588647373656624E+00    1.1258138242938625E+01    4.5556905110713251E+00
Ar    6.9092444758483653E+00    1.4214069054176951E+01    1.0051710841727889E+01
Ar    1.2555984030815418E+01    1.4110066177679261E+01    1.3358253650161760E+01
Ar    1.5801661736602966E+01    7.6484811707968650E+00    7.6075308859858186E+00
Ar    1.6597656961777307E+01    9.7423387401961108E+00    1.0637778766060089E+01
Ar    1.3143154439227116E+01    1.4694867864405127E+01    8.1233832660287959E+00
Ar    1.2342255616980538E+01    1.2579709328482098E+01    5.0888713744288978E+00
Ar    1.0426583088063724E+01    1.5516482772520479E+01    1.0592811361737427E+01
Ar    9.6404770968813409E+00    1.3377471812899199E+01    7.5851240477350927E+00
Ar    1.4450788916109065E+01    1.1159411325515659E+01    7.8730869983977989E+00
Ar    7.6779444836298198E+00    1.0105713648345432E+01    1.5080689794278474E+01
Ar    8.7817818492667978E+00    5.0347135021019094E+00    6.5846962642614946E+00
Ar    4.7411165845306691E+00    9.4160846996143750E+00    9.2867581095674367E+00
Ar    1.2488752333836281E+01    7.8894981005185274E+00    1.5376427345784059E+01
Ar    1.4446592387631007E+01    4.9587905750318324E+00    9.8670269004322719E+00
Ar    6.8854908997714439E+00    8.0064516391922229E+00    1.2049846140363101E+01
Ar    6.0669754320879736E+00    5.8754970381326270E+00    9.0514341632207973E+00
Ar    1.0931838429856779E+01    3.6436714698044037E+00    9.3419706500931667E+00
Ar    1.1711521876078249E+01    5.7830048759229182E+00    1.2343011609670318E+01
Ar    8.9985770119604513E+00    6.5895425985953562E+00    1.4829509954550019E+01
Ar    1.1750405614433236E+01    1.1970345451570211E+01    1.0348905857040753E+01
Ar    1.3869923437937201E+01    1.0576279394508749E+01    1.3112647380846520E+01
Ar    1.0958374741544372E+01    9.8648769875634557E+00    7.3612619052537305E+00
Ar    1.3073234507678821E+01    8.4717713276892788E+00    1.0106329029468480E+01
Ar    8.2683212165769451E+00    1.0686956006831338E+01    9.8193879272262734E+00
Ar    1.0380873564645761E+01    9.2925095020070945E+00    1.2567747568588526E+01
Ar    9.5925025391600851E+00    7.1862612424110281E+00    9.5818003182593205E+00
     &END COORD
     &TOPOLOGY
       COORD_FILE_NAME octahedron.xyz
       COORD_FILE_FORMAT  XYZ
       NUMBER_OF_ATOMS  38
       MULTIPLE_UNIT_CELL  1 1 1
       &CENTER_COORDINATES  T
       &END CENTER_COORDINATES
     &END TOPOLOGY
   &END SUBSYS
   &PRINT
     &FORCES  OFF
     &END FORCES
     &GRID_INFORMATION  SILENT
     &END GRID_INFORMATION
   &END PRINT
 &END FORCE_EVAL
