 # Version information for this restart file 
 # current date 2023-03-08 08:50:17.404
 # current working dir /cluster/home/jbachmann/Molecular-and-Materials-Modelling-FS2023/exercise-3_files/BFGS-octahedron
 # Program compiled at                             Tue Aug  3 16:40:32 CEST 2021
 # Program compiled on                                               eu-g1-012-3
 # Program compiled for                         Linux-x86-64-gfortran-opt-nolint
 # Source code revision number                                       git:310b7ab
 &GLOBAL
   PRINT_LEVEL  LOW
   PROJECT_NAME optimization
   RUN_TYPE  GEO_OPT
 &END GLOBAL
 &MOTION
   &GEO_OPT
     OPTIMIZER  BFGS
     MAX_ITER  500
     MAX_DR     1.0000000000000000E-03
     MAX_FORCE     1.0000000000000000E-04
     RMS_DR     2.9999999999999997E-04
     RMS_FORCE     3.0000000000000001E-05
     STEP_START_VAL  185
     &BFGS
       USE_MODEL_HESSIAN  T
     &END BFGS
   &END GEO_OPT
   &PRINT
     &TRAJECTORY  ON
       FORMAT  XMOL
       &EACH
         GEO_OPT  1
       &END EACH
     &END TRAJECTORY
   &END PRINT
 &END MOTION
 &FORCE_EVAL
   METHOD  FIST
   STRESS_TENSOR  ANALYTICAL
   &MM
     &FORCEFIELD
       &NONBONDED
         &LENNARD-JONES
           ATOMS Ar Ar
           EPSILON     1.1980000000000000E+02
           SIGMA     3.4049999999999998E+00
           RCUT     8.4000000000000004E+00
         &END LENNARD-JONES
       &END NONBONDED
       &CHARGE
         ATOM Ar
         CHARGE     0.0000000000000000E+00
       &END CHARGE
       &CHARGE
         ATOM Kr
         CHARGE     0.0000000000000000E+00
       &END CHARGE
     &END FORCEFIELD
     &POISSON
       PERIODIC  NONE
       &EWALD
         EWALD_TYPE  NONE
       &END EWALD
     &END POISSON
     &PRINT
       &FF_INFO  OFF
         SPLINE_INFO  T
         SPLINE_DATA  T
       &END FF_INFO
     &END PRINT
   &END MM
   &SUBSYS
     &CELL
       A     2.0000000000000004E+01    0.0000000000000000E+00    0.0000000000000000E+00
       B     0.0000000000000000E+00    2.0000000000000004E+01    0.0000000000000000E+00
       C     0.0000000000000000E+00    0.0000000000000000E+00    2.0000000000000004E+01
       PERIODIC  NONE
       MULTIPLE_UNIT_CELL  1 1 1
     &END CELL
     &COORD
Ar    1.5218916247885449E+01    7.0598261650312590E+00    1.2894084358977153E+01
Ar    5.5361008377863419E+00    1.1525280940432843E+01    1.2302795957024642E+01
Ar    7.4670652710670229E+00    8.5723674126212472E+00    6.8197636286760153E+00
Ar    1.2287968984829741E+01    6.3564107559559977E+00    7.1047521605014037E+00
Ar    1.1168150403543200E+01    1.1405167575369829E+01    1.5609231684665923E+01
Ar    8.2081657449130017E+00    4.4669161162065496E+00    1.1804625581304334E+01
Ar    6.1320436546774619E+00    1.2096442373869358E+01    7.0373874891506523E+00
Ar    1.3646956881934146E+01    9.0580785637135595E+00    4.8366935235267450E+00
Ar    9.0515421077844920E+00    1.2800512404238534E+01    1.2822149124438642E+01
Ar    1.5266696000977653E+01    1.3279348348263378E+01    1.0886518498014464E+01
Ar    1.0158138299033695E+01    7.7330698528006936E+00    4.3250724032169874E+00
Ar    8.8588448916155915E+00    1.1258071251944202E+01    4.5556346050700283E+00
Ar    6.9094513023160919E+00    1.4214240646951652E+01    1.0051828410810066E+01
Ar    1.2555932049880512E+01    1.4110174357380275E+01    1.3358378902640222E+01
Ar    1.5801547367120309E+01    7.6484356090772661E+00    7.6075704273979010E+00
Ar    1.6597648630037348E+01    9.7424150159968086E+00    1.0637726148697636E+01
Ar    1.3143256064707042E+01    1.4694927537618641E+01    8.1233297103181084E+00
Ar    1.2342341567286125E+01    1.2579706723476443E+01    5.0889068069413836E+00
Ar    1.0426687360127445E+01    1.5516470298827626E+01    1.0592782546787472E+01
Ar    9.6405088010077424E+00    1.3377537917872786E+01    7.5851292132966783E+00
Ar    1.4450830422429611E+01    1.1159412647817570E+01    7.8730098232145291E+00
Ar    7.6777768435394789E+00    1.0105787335500398E+01    1.5080611817189640E+01
Ar    8.7818086489222491E+00    5.0345918579618312E+00    6.5848230235460878E+00
Ar    4.7409659877973898E+00    9.4159310094578395E+00    9.2866179779164479E+00
Ar    1.2488869409454230E+01    7.8893882431230296E+00    1.5376421269452530E+01
Ar    1.4446528959861542E+01    4.9587615540588823E+00    9.8669713979568776E+00
Ar    6.8855464208479100E+00    8.0062159248439517E+00    1.2049872751070879E+01
Ar    6.0670595857820917E+00    5.8754706653409174E+00    9.0514326385303114E+00
Ar    1.0931928871814867E+01    3.6434182142027058E+00    9.3419813792816999E+00
Ar    1.1711431480991813E+01    5.7829291305749679E+00    1.2343052123917991E+01
Ar    8.9986081378197653E+00    6.5895773655218903E+00    1.4829587686884445E+01
Ar    1.1750327091540255E+01    1.1970553427361041E+01    1.0348943428029136E+01
Ar    1.3870034654427254E+01    1.0576295148584604E+01    1.3112717241130502E+01
Ar    1.0958173044799533E+01    9.8649271970921522E+00    7.3611169007348565E+00
Ar    1.3073431138374710E+01    8.4718065836880676E+00    1.0106256246355782E+01
Ar    8.2684872923090182E+00    1.0686934032189265E+01    9.8193483259322161E+00
Ar    1.0380659257918550E+01    9.2923533595900967E+00    1.2567646646737181E+01
Ar    9.5922722828398186E+00    7.1863024354422000E+00    9.5820081406639002E+00
     &END COORD
     &TOPOLOGY
       COORD_FILE_NAME octahedron.xyz
       COORD_FILE_FORMAT  XYZ
       NUMBER_OF_ATOMS  38
       MULTIPLE_UNIT_CELL  1 1 1
       &CENTER_COORDINATES  T
       &END CENTER_COORDINATES
     &END TOPOLOGY
   &END SUBSYS
   &PRINT
     &FORCES  OFF
     &END FORCES
     &GRID_INFORMATION  SILENT
     &END GRID_INFORMATION
   &END PRINT
 &END FORCE_EVAL
