 # Version information for this restart file 
 # current date 2023-03-08 08:50:17.387
 # current working dir /cluster/home/jbachmann/Molecular-and-Materials-Modelling-FS2023/exercise-3_files/BFGS-octahedron
 # Program compiled at                             Tue Aug  3 16:40:32 CEST 2021
 # Program compiled on                                               eu-g1-012-3
 # Program compiled for                         Linux-x86-64-gfortran-opt-nolint
 # Source code revision number                                       git:310b7ab
 &GLOBAL
   PRINT_LEVEL  LOW
   PROJECT_NAME optimization
   RUN_TYPE  GEO_OPT
 &END GLOBAL
 &MOTION
   &GEO_OPT
     OPTIMIZER  BFGS
     MAX_ITER  500
     MAX_DR     1.0000000000000000E-03
     MAX_FORCE     1.0000000000000000E-04
     RMS_DR     2.9999999999999997E-04
     RMS_FORCE     3.0000000000000001E-05
     STEP_START_VAL  183
     &BFGS
       USE_MODEL_HESSIAN  T
     &END BFGS
   &END GEO_OPT
   &PRINT
     &TRAJECTORY  ON
       FORMAT  XMOL
       &EACH
         GEO_OPT  1
       &END EACH
     &END TRAJECTORY
   &END PRINT
 &END MOTION
 &FORCE_EVAL
   METHOD  FIST
   STRESS_TENSOR  ANALYTICAL
   &MM
     &FORCEFIELD
       &NONBONDED
         &LENNARD-JONES
           ATOMS Ar Ar
           EPSILON     1.1980000000000000E+02
           SIGMA     3.4049999999999998E+00
           RCUT     8.4000000000000004E+00
         &END LENNARD-JONES
       &END NONBONDED
       &CHARGE
         ATOM Ar
         CHARGE     0.0000000000000000E+00
       &END CHARGE
       &CHARGE
         ATOM Kr
         CHARGE     0.0000000000000000E+00
       &END CHARGE
     &END FORCEFIELD
     &POISSON
       PERIODIC  NONE
       &EWALD
         EWALD_TYPE  NONE
       &END EWALD
     &END POISSON
     &PRINT
       &FF_INFO  OFF
         SPLINE_INFO  T
         SPLINE_DATA  T
       &END FF_INFO
     &END PRINT
   &END MM
   &SUBSYS
     &CELL
       A     2.0000000000000004E+01    0.0000000000000000E+00    0.0000000000000000E+00
       B     0.0000000000000000E+00    2.0000000000000004E+01    0.0000000000000000E+00
       C     0.0000000000000000E+00    0.0000000000000000E+00    2.0000000000000004E+01
       PERIODIC  NONE
       MULTIPLE_UNIT_CELL  1 1 1
     &END CELL
     &COORD
Ar    1.5218499085978509E+01    7.0598406465908834E+00    1.2895001642927248E+01
Ar    5.5368244497577246E+00    1.1524942720464471E+01    1.2304098326175440E+01
Ar    7.4672055494370184E+00    8.5724407138540997E+00    6.8198772319073617E+00
Ar    1.2287426819403562E+01    6.3561280843423660E+00    7.1045342538211447E+00
Ar    1.1168730961398051E+01    1.1405864546909283E+01    1.5609091041996230E+01
Ar    8.2079839541210351E+00    4.4670326394608049E+00    1.1804110410943499E+01
Ar    6.1322955801946453E+00    1.2096586954947576E+01    7.0367700923559360E+00
Ar    1.3646755850886896E+01    9.0576166036748837E+00    4.8368692391871448E+00
Ar    9.0516767289480526E+00    1.2800215781032414E+01    1.2821953641044690E+01
Ar    1.5266727133954566E+01    1.3279448830329166E+01    1.0886402680381629E+01
Ar    1.0158210969670701E+01    7.7330402480179776E+00    4.3249041023556778E+00
Ar    8.8592160892439260E+00    1.1258161240273944E+01    4.5554749488809438E+00
Ar    6.9088053347971083E+00    1.4213516627461734E+01    1.0051786251166551E+01
Ar    1.2555951671238244E+01    1.4110022077771763E+01    1.3357931175850842E+01
Ar    1.5801724223411858E+01    7.6485806032413661E+00    7.6073730337649295E+00
Ar    1.6597437401364928E+01    9.7420341570914246E+00    1.0637720776530271E+01
Ar    1.3142448669759228E+01    1.4694772099693322E+01    8.1236449086769298E+00
Ar    1.2342273208762984E+01    1.2579421839940185E+01    5.0893092162580018E+00
Ar    1.0425551008328899E+01    1.5516183916651038E+01    1.0592881482066078E+01
Ar    9.6400244039957723E+00    1.3377193162953114E+01    7.5850027955608486E+00
Ar    1.4450921175861312E+01    1.1159506934948890E+01    7.8732879148768165E+00
Ar    7.6791636894924782E+00    1.0105391643273204E+01    1.5080835384813774E+01
Ar    8.7814530126320065E+00    5.0347060261618983E+00    6.5846406716565502E+00
Ar    4.7415963306836568E+00    9.4168800348274004E+00    9.2869748725310544E+00
Ar    1.2487558135878491E+01    7.8901678827327046E+00    1.5376593256197713E+01
Ar    1.4446890610455133E+01    4.9588572647507210E+00    9.8675646077695589E+00
Ar    6.8855279921857733E+00    8.0067406669892076E+00    1.2049675997804924E+01
Ar    6.0664942102807213E+00    5.8757973231623035E+00    9.0510707662296390E+00
Ar    1.0931967868853416E+01    3.6442018242779097E+00    9.3420630320659512E+00
Ar    1.1711980012638763E+01    5.7831595581866537E+00    1.2342734078177026E+01
Ar    8.9982910204139301E+00    6.5888938783572044E+00    1.4829109050799136E+01
Ar    1.1750638229561721E+01    1.1969855753271684E+01    1.0348749654572371E+01
Ar    1.3869901107880418E+01    1.0576361314184505E+01    1.3112479236058753E+01
Ar    1.0958965636355730E+01    9.8647162564113202E+00    7.3616729956017926E+00
Ar    1.3073095074480291E+01    8.4718705922009132E+00    1.0106372305214869E+01
Ar    8.2680189015904748E+00    1.0687074319982269E+01    9.8195202903574401E+00
Ar    1.0381558925792955E+01    9.2926536970690723E+00    1.2567469201388777E+01
Ar    9.5929109703094912E+00    7.1861775345106569E+00    9.5812294320339326E+00
     &END COORD
     &TOPOLOGY
       COORD_FILE_NAME octahedron.xyz
       COORD_FILE_FORMAT  XYZ
       NUMBER_OF_ATOMS  38
       MULTIPLE_UNIT_CELL  1 1 1
       &CENTER_COORDINATES  T
       &END CENTER_COORDINATES
     &END TOPOLOGY
   &END SUBSYS
   &PRINT
     &FORCES  OFF
     &END FORCES
     &GRID_INFORMATION  SILENT
     &END GRID_INFORMATION
   &END PRINT
 &END FORCE_EVAL
